16 57
17 63
5 64
8 52
7 38
12 42
21 47
30 48
30 40
32 39
31 32
25 32
20 26
17 33
5 25
10 17
13 13
5 6
21 10
30 15
27 23
32 22
36 16
39 10
46 10
59 15
51 21
48 28
40 30
45 35
52 33
58 27
61 33
56 37
62 42
58 48
52 41
42 41
38 46
37 52
42 57
49 49
57 58
62 63
63 69
52 64
43 67
37 69
27 68
31 62
25 55
16 57
